sat
(:added-eqs                       110731
 :arith-eq-adapter                2854
 :arith-bound-propagations-lp     65177
 :arith-branch                    1328
 :arith-conflicts                 10960
 :arith-cube-calls                347
 :arith-dio-calls                 13
 :arith-dio-tighten-conflicts     1
 :arith-diseq                     56053
 :arith-fixed-eqs                 27980
 :arith-gcd-calls                 2501
 :arith-gcd-conflict              1
 :arith-grobner-calls             1796
 :arith-grobner-conflicts         587
 :arith-hnf-calls                 331
 :arith-horner-calls              492
 :arith-horner-conflicts          12
 :arith-horner-cross-nested-forms 64811
 :arith-lower                     65915
 :arith-make-feasible             53725
 :arith-max-columns               1848
 :arith-max-rows                  996
 :arith-nla-add-bounds            381
 :arith-nla-lemmas                6475
 :arith-nla-propagate-bounds      2222
 :arith-nla-propagate-eq          43988
 :arith-nra-calls                 413
 :arith-offset-eqs                20425
 :arith-patches                   2500
 :arith-patches-success           1129
 :arith-upper                     83794
 :binary-propagations             362872
 :cnf-encoding-aux-vars           35
 :conflicts                       3088
 :decisions                       627052
 :del-clause                      13178
 :elim-unconstrained              184
 :final-checks                    4754
 :max-memory                      39.87
 :memory                          18.81
 :minimized-lits                  16304
 :mk-bool-var                     26596
 :mk-clause                       16973
 :mk-clause-binary                17007
 :nlsat-conflicts                 40262
 :nlsat-decisions                 2652
 :nlsat-propagations              1509281
 :nlsat-restarts                  1
 :nlsat-stages                    651977
 :num-allocs                      137495411363.00
 :num-checks                      2
 :propagations                    474307
 :restarts                        26
 :rlimit-count                    50592205
 :solve-eqs-elim-vars             104
 :solve-eqs-steps                 942
 :time                            18.78
 :total-time                      18.75)
